
-3.9
-3.6
-3.3
-3.0
-2.9
-2.9
-2.9
-2.9
-2.9
-2.9
-2.8
-2.8
-2.7
-2.6
-2.6
-2.4
-2.4
-2.4
-2.4
-2.4
-2.4
-2.4
-3.7
-3.45
-3.25
-3.1
-3.1
-3.0
-3.0
-2.8
-2.8
-2.8
-2.8
-2.75
-2.75
-2.75
-2.75
-2.7
-2.7
-2.7
-2.7
-2.65
-2.65
-2.65
-2.65
-2.65
-2.6
-2.6
-2.6
-2.6